\ Model birth-death-regulation-capture-efficiency
\ LP format - for model browsing. Use MPS format to capture full model detail.
Minimize
  k_reg
Subject To
 R0: k_deg_2 = 1
 B_lb_0,_0: p[0,0] >= 0.302048
 B_ub_0,_0: p[0,0] <= 0.341
 B_lb_0,_1: p[0,1] >= 0.185848
 B_ub_0,_1: p[0,1] <= 0.221
 B_lb_0,_2: p[0,2] >= 0.048048
 B_ub_0,_2: p[0,2] <= 0.0744
 B_lb_0,_3: p[0,3] >= 0.002248
 B_ub_0,_3: p[0,3] <= 0.0224
 B_lb_0,_4: p[0,4] >= -0.010752
 B_ub_0,_4: p[0,4] <= 0.0052
 B_lb_1,_0: p[1,0] >= 0.183448
 B_ub_1,_0: p[1,0] <= 0.218405
 B_lb_1,_1: p[1,1] >= 0.033248
 B_ub_1,_1: p[1,1] <= 0.0576
 B_lb_1,_2: p[1,2] >= -0.007152
 B_ub_1,_2: p[1,2] <= 0.0104
 B_lb_1,_3: p[1,3] >= -0.012552
 B_ub_1,_3: p[1,3] <= 1
 B_lb_1,_4: p[1,4] >= -0.012552
 B_ub_1,_4: p[1,4] <= 1
 B_lb_2,_0: p[2,0] >= 0.050848
 B_ub_2,_0: p[2,0] <= 0.0774
 B_lb_2,_1: p[2,1] >= -0.008152
 B_ub_2,_1: p[2,1] <= 0.0088
 B_lb_2,_2: p[2,2] >= -0.012552
 B_ub_2,_2: p[2,2] <= 1
 B_lb_2,_3: p[2,3] >= -0.012552
 B_ub_2,_3: p[2,3] <= 1
 B_lb_2,_4: p[2,4] >= -0.012552
 B_ub_2,_4: p[2,4] <= 1
 B_lb_3,_0: p[3,0] >= 0.003248
 B_ub_3,_0: p[3,0] <= 0.0234
 B_lb_3,_1: p[3,1] >= -0.011552
 B_ub_3,_1: p[3,1] <= 0.0036
 B_lb_3,_2: p[3,2] >= -0.012552
 B_ub_3,_2: p[3,2] <= 1
 B_lb_3,_3: p[3,3] >= -0.012552
 B_ub_3,_3: p[3,3] <= 1
 B_lb_3,_4: p[3,4] >= -0.012552
 B_ub_3,_4: p[3,4] <= 1
 B_lb_4,_0: p[4,0] >= -0.009752
 B_ub_4,_0: p[4,0] <= 0.0066
 B_lb_4,_1: p[4,1] >= -0.012552
 B_ub_4,_1: p[4,1] <= 1
 B_lb_4,_2: p[4,2] >= -0.012552
 B_ub_4,_2: p[4,2] <= 1
 B_lb_4,_3: p[4,3] >= -0.012552
 B_ub_4,_3: p[4,3] <= 1
 B_lb_4,_4: p[4,4] >= -0.012552
 B_ub_4,_4: p[4,4] <= 1
 B_marginal_lb_0: p1[0] >= 0.50788
 B_marginal_ub_0: p1[0] <= 0.6408
 B_marginal_lb_1: p1[1] >= 0.150075
 B_marginal_ub_1: p1[1] <= 0.2806
 B_marginal_lb_2: p1[2] >= -0.03632
 B_marginal_ub_2: p1[2] <= 0.0842
 B_marginal_lb_3: p1[3] >= -0.08832
 B_marginal_ub_3: p1[3] <= 0.0258
 B_marginal_lb_4: p1[4] >= -0.10332
 B_marginal_ub_4: p1[4] <= 0.0066
 B_marginal_lb_0: p2[0] >= 0.51232
 B_marginal_ub_0: p2[0] <= 0.6434
 B_marginal_lb_1: p2[1] >= 0.15352
 B_marginal_ub_1: p2[1] <= 0.2824
 B_marginal_lb_2: p2[2] >= -0.03608
 B_marginal_ub_2: p2[2] <= 0.0828
 B_marginal_lb_3: p2[3] >= -0.08808
 B_marginal_ub_3: p2[3] <= 0.023805
 B_marginal_lb_4: p2[4] >= -0.10248
 B_marginal_ub_4: p2[4] <= 0.0052
 frechet_lb_0,_0: - p[0,0] + p1[0] + p2[0] <= 1
 frechet_ub_x1_0: p[0,0] - p1[0] <= 0
 frechet_ub_x2_0: p[0,0] - p2[0] <= 0
 frechet_lb_0,_1: - p[0,1] + p1[0] + p2[1] <= 1
 frechet_ub_x1_0: p[0,1] - p1[0] <= 0
 frechet_ub_x2_1: p[0,1] - p2[1] <= 0
 frechet_lb_0,_2: - p[0,2] + p1[0] + p2[2] <= 1
 frechet_ub_x1_0: p[0,2] - p1[0] <= 0
 frechet_ub_x2_2: p[0,2] - p2[2] <= 0
 frechet_lb_0,_3: - p[0,3] + p1[0] + p2[3] <= 1
 frechet_ub_x1_0: p[0,3] - p1[0] <= 0
 frechet_ub_x2_3: p[0,3] - p2[3] <= 0
 frechet_lb_0,_4: - p[0,4] + p1[0] + p2[4] <= 1
 frechet_ub_x1_0: p[0,4] - p1[0] <= 0
 frechet_ub_x2_4: p[0,4] - p2[4] <= 0
 frechet_lb_1,_0: - p[1,0] + p1[1] + p2[0] <= 1
 frechet_ub_x1_1: p[1,0] - p1[1] <= 0
 frechet_ub_x2_0: p[1,0] - p2[0] <= 0
 frechet_lb_1,_1: - p[1,1] + p1[1] + p2[1] <= 1
 frechet_ub_x1_1: p[1,1] - p1[1] <= 0
 frechet_ub_x2_1: p[1,1] - p2[1] <= 0
 frechet_lb_1,_2: - p[1,2] + p1[1] + p2[2] <= 1
 frechet_ub_x1_1: p[1,2] - p1[1] <= 0
 frechet_ub_x2_2: p[1,2] - p2[2] <= 0
 frechet_lb_1,_3: - p[1,3] + p1[1] + p2[3] <= 1
 frechet_ub_x1_1: p[1,3] - p1[1] <= 0
 frechet_ub_x2_3: p[1,3] - p2[3] <= 0
 frechet_lb_1,_4: - p[1,4] + p1[1] + p2[4] <= 1
 frechet_ub_x1_1: p[1,4] - p1[1] <= 0
 frechet_ub_x2_4: p[1,4] - p2[4] <= 0
 frechet_lb_2,_0: - p[2,0] + p1[2] + p2[0] <= 1
 frechet_ub_x1_2: p[2,0] - p1[2] <= 0
 frechet_ub_x2_0: p[2,0] - p2[0] <= 0
 frechet_lb_2,_1: - p[2,1] + p1[2] + p2[1] <= 1
 frechet_ub_x1_2: p[2,1] - p1[2] <= 0
 frechet_ub_x2_1: p[2,1] - p2[1] <= 0
 frechet_lb_2,_2: - p[2,2] + p1[2] + p2[2] <= 1
 frechet_ub_x1_2: p[2,2] - p1[2] <= 0
 frechet_ub_x2_2: p[2,2] - p2[2] <= 0
 frechet_lb_2,_3: - p[2,3] + p1[2] + p2[3] <= 1
 frechet_ub_x1_2: p[2,3] - p1[2] <= 0
 frechet_ub_x2_3: p[2,3] - p2[3] <= 0
 frechet_lb_2,_4: - p[2,4] + p1[2] + p2[4] <= 1
 frechet_ub_x1_2: p[2,4] - p1[2] <= 0
 frechet_ub_x2_4: p[2,4] - p2[4] <= 0
 frechet_lb_3,_0: - p[3,0] + p1[3] + p2[0] <= 1
 frechet_ub_x1_3: p[3,0] - p1[3] <= 0
 frechet_ub_x2_0: p[3,0] - p2[0] <= 0
 frechet_lb_3,_1: - p[3,1] + p1[3] + p2[1] <= 1
 frechet_ub_x1_3: p[3,1] - p1[3] <= 0
 frechet_ub_x2_1: p[3,1] - p2[1] <= 0
 frechet_lb_3,_2: - p[3,2] + p1[3] + p2[2] <= 1
 frechet_ub_x1_3: p[3,2] - p1[3] <= 0
 frechet_ub_x2_2: p[3,2] - p2[2] <= 0
 frechet_lb_3,_3: - p[3,3] + p1[3] + p2[3] <= 1
 frechet_ub_x1_3: p[3,3] - p1[3] <= 0
 frechet_ub_x2_3: p[3,3] - p2[3] <= 0
 frechet_lb_3,_4: - p[3,4] + p1[3] + p2[4] <= 1
 frechet_ub_x1_3: p[3,4] - p1[3] <= 0
 frechet_ub_x2_4: p[3,4] - p2[4] <= 0
 frechet_lb_4,_0: - p[4,0] + p1[4] + p2[0] <= 1
 frechet_ub_x1_4: p[4,0] - p1[4] <= 0
 frechet_ub_x2_0: p[4,0] - p2[0] <= 0
 frechet_lb_4,_1: - p[4,1] + p1[4] + p2[1] <= 1
 frechet_ub_x1_4: p[4,1] - p1[4] <= 0
 frechet_ub_x2_1: p[4,1] - p2[1] <= 0
 frechet_lb_4,_2: - p[4,2] + p1[4] + p2[2] <= 1
 frechet_ub_x1_4: p[4,2] - p1[4] <= 0
 frechet_ub_x2_2: p[4,2] - p2[2] <= 0
 frechet_lb_4,_3: - p[4,3] + p1[4] + p2[3] <= 1
 frechet_ub_x1_4: p[4,3] - p1[4] <= 0
 frechet_ub_x2_3: p[4,3] - p2[3] <= 0
 frechet_lb_4,_4: - p[4,4] + p1[4] + p2[4] <= 1
 frechet_ub_x1_4: p[4,4] - p1[4] <= 0
 frechet_ub_x2_4: p[4,4] - p2[4] <= 0
 Distribution: p[0,0] + p[0,1] + p[0,2] + p[0,3] + p[0,4] + p[1,0] + p[1,1]
   + p[1,2] + p[1,3] + p[1,4] + p[2,0] + p[2,1] + p[2,2] + p[2,3] + p[2,4]
   + p[3,0] + p[3,1] + p[3,2] + p[3,3] + p[3,4] + p[4,0] + p[4,1] + p[4,2]
   + p[4,3] + p[4,4] <= 1
 Distribution_x1: p1[0] + p1[1] + p1[2] + p1[3] + p1[4] <= 1
 Distribution_x2: p2[0] + p2[1] + p2[2] + p2[3] + p2[4] <= 1
 Equation_0,_0: [ - p[0,0] * k_tx_1 - p[0,0] * k_tx_2 + p[0,1] * k_deg_2
   + p[1,0] * k_deg_1 + p[1,1] * k_reg ] = 0
 Equation_0,_1: [ p[0,0] * k_tx_2 - p[0,1] * k_tx_1 - p[0,1] * k_tx_2
   - p[0,1] * k_deg_2 + 2 p[0,2] * k_deg_2 + p[1,1] * k_deg_1
   + 2 p[1,2] * k_reg ] = 0
 Equation_0,_2: [ p[0,1] * k_tx_2 - p[0,2] * k_tx_1 - p[0,2] * k_tx_2
   - 2 p[0,2] * k_deg_2 + 3 p[0,3] * k_deg_2 + p[1,2] * k_deg_1
   + 3 p[1,3] * k_reg ] = 0
 Equation_0,_3: [ p[0,2] * k_tx_2 - p[0,3] * k_tx_1 - p[0,3] * k_tx_2
   - 3 p[0,3] * k_deg_2 + 4 p[0,4] * k_deg_2 + p[1,3] * k_deg_1
   + 4 p[1,4] * k_reg ] = 0
 Equation_1,_0: [ p[0,0] * k_tx_1 - p[1,0] * k_tx_1 - p[1,0] * k_tx_2
   - p[1,0] * k_deg_1 + p[1,1] * k_deg_2 + 2 p[2,0] * k_deg_1
   + 2 p[2,1] * k_reg ] = 0
 Equation_1,_1: [ p[0,1] * k_tx_1 + p[1,0] * k_tx_2 - p[1,1] * k_tx_1
   - p[1,1] * k_tx_2 - p[1,1] * k_deg_1 - p[1,1] * k_deg_2 - p[1,1] * k_reg
   + 2 p[1,2] * k_deg_2 + 2 p[2,1] * k_deg_1 + 4 p[2,2] * k_reg ] = 0
 Equation_1,_2: [ p[0,2] * k_tx_1 + p[1,1] * k_tx_2 - p[1,2] * k_tx_1
   - p[1,2] * k_tx_2 - p[1,2] * k_deg_1 - 2 p[1,2] * k_deg_2
   - 2 p[1,2] * k_reg + 3 p[1,3] * k_deg_2 + 2 p[2,2] * k_deg_1
   + 6 p[2,3] * k_reg ] = 0
 Equation_1,_3: [ p[0,3] * k_tx_1 + p[1,2] * k_tx_2 - p[1,3] * k_tx_1
   - p[1,3] * k_tx_2 - p[1,3] * k_deg_1 - 3 p[1,3] * k_deg_2
   - 3 p[1,3] * k_reg + 4 p[1,4] * k_deg_2 + 2 p[2,3] * k_deg_1
   + 8 p[2,4] * k_reg ] = 0
 Equation_2,_0: [ p[1,0] * k_tx_1 - p[2,0] * k_tx_1 - p[2,0] * k_tx_2
   - 2 p[2,0] * k_deg_1 + p[2,1] * k_deg_2 + 3 p[3,0] * k_deg_1
   + 3 p[3,1] * k_reg ] = 0
 Equation_2,_1: [ p[1,1] * k_tx_1 + p[2,0] * k_tx_2 - p[2,1] * k_tx_1
   - p[2,1] * k_tx_2 - 2 p[2,1] * k_deg_1 - p[2,1] * k_deg_2
   - 2 p[2,1] * k_reg + 2 p[2,2] * k_deg_2 + 3 p[3,1] * k_deg_1
   + 6 p[3,2] * k_reg ] = 0
 Equation_2,_2: [ p[1,2] * k_tx_1 + p[2,1] * k_tx_2 - p[2,2] * k_tx_1
   - p[2,2] * k_tx_2 - 2 p[2,2] * k_deg_1 - 2 p[2,2] * k_deg_2
   - 4 p[2,2] * k_reg + 3 p[2,3] * k_deg_2 + 3 p[3,2] * k_deg_1
   + 9 p[3,3] * k_reg ] = 0
 Equation_2,_3: [ p[1,3] * k_tx_1 + p[2,2] * k_tx_2 - p[2,3] * k_tx_1
   - p[2,3] * k_tx_2 - 2 p[2,3] * k_deg_1 - 3 p[2,3] * k_deg_2
   - 6 p[2,3] * k_reg + 4 p[2,4] * k_deg_2 + 3 p[3,3] * k_deg_1
   + 12 p[3,4] * k_reg ] = 0
 Equation_3,_0: [ p[2,0] * k_tx_1 - p[3,0] * k_tx_1 - p[3,0] * k_tx_2
   - 3 p[3,0] * k_deg_1 + p[3,1] * k_deg_2 + 4 p[4,0] * k_deg_1
   + 4 p[4,1] * k_reg ] = 0
 Equation_3,_1: [ p[2,1] * k_tx_1 + p[3,0] * k_tx_2 - p[3,1] * k_tx_1
   - p[3,1] * k_tx_2 - 3 p[3,1] * k_deg_1 - p[3,1] * k_deg_2
   - 3 p[3,1] * k_reg + 2 p[3,2] * k_deg_2 + 4 p[4,1] * k_deg_1
   + 8 p[4,2] * k_reg ] = 0
 Equation_3,_2: [ p[2,2] * k_tx_1 + p[3,1] * k_tx_2 - p[3,2] * k_tx_1
   - p[3,2] * k_tx_2 - 3 p[3,2] * k_deg_1 - 2 p[3,2] * k_deg_2
   - 6 p[3,2] * k_reg + 3 p[3,3] * k_deg_2 + 4 p[4,2] * k_deg_1
   + 12 p[4,3] * k_reg ] = 0
 Equation_3,_3: [ p[2,3] * k_tx_1 + p[3,2] * k_tx_2 - p[3,3] * k_tx_1
   - p[3,3] * k_tx_2 - 3 p[3,3] * k_deg_1 - 3 p[3,3] * k_deg_2
   - 9 p[3,3] * k_reg + 4 p[3,4] * k_deg_2 + 4 p[4,3] * k_deg_1
   + 16 p[4,4] * k_reg ] = 0
Bounds
 p[0,0] <= 1
 p[0,1] <= 1
 p[0,2] <= 1
 p[0,3] <= 1
 p[0,4] <= 1
 p[1,0] <= 1
 p[1,1] <= 1
 p[1,2] <= 1
 p[1,3] <= 1
 p[1,4] <= 1
 p[2,0] <= 1
 p[2,1] <= 1
 p[2,2] <= 1
 p[2,3] <= 1
 p[2,4] <= 1
 p[3,0] <= 1
 p[3,1] <= 1
 p[3,2] <= 1
 p[3,3] <= 1
 p[3,4] <= 1
 p[4,0] <= 1
 p[4,1] <= 1
 p[4,2] <= 1
 p[4,3] <= 1
 p[4,4] <= 1
 p1[0] <= 1
 p1[1] <= 1
 p1[2] <= 1
 p1[3] <= 1
 p1[4] <= 1
 p2[0] <= 1
 p2[1] <= 1
 p2[2] <= 1
 p2[3] <= 1
 p2[4] <= 1
 k_tx_1 <= 10
 k_tx_2 <= 10
 k_deg_1 <= 10
 k_deg_2 <= 10
 k_reg <= 10
End
